Timesteps: 1
s UNSATISFIABLE
real 0.28
user 0.03
sys 0.01
Timesteps: 2
s UNSATISFIABLE
real 0.33
user 0.08
sys 0.00
Timesteps: 3
s UNSATISFIABLE
real 0.27
user 0.11
sys 0.02
Timesteps: 4
s UNSATISFIABLE
real 0.44
user 0.18
sys 0.01
Timesteps: 5
s UNSATISFIABLE
real 0.72
user 0.45
sys 0.02
Timesteps: 6
s UNSATISFIABLE
real 1.14
user 0.88
sys 0.02
Timesteps: 7
s UNSATISFIABLE
real 4.47
user 3.75
sys 0.03
Timesteps: 8
s UNSATISFIABLE
real 8.46
user 7.56
sys 0.04
Timesteps: 9
s UNSATISFIABLE
real 16.83
user 15.79
sys 0.06
Timesteps: 10
s UNSATISFIABLE
real 24.04
user 22.86
sys 0.08
Timesteps: 11
s UNSATISFIABLE
real 39.95
user 38.57
sys 0.09
Timesteps: 12
s UNSATISFIABLE
real 38.44
user 36.99
sys 0.11
Timesteps: 13
s UNSATISFIABLE
real 32.21
user 30.79
sys 0.09
Timesteps: 14
s UNSATISFIABLE
real 34.04
user 33.22
sys 0.12
Timesteps: 15
s UNSATISFIABLE
real 39.06
user 38.25
sys 0.11
Timesteps: 16
s UNSATISFIABLE
real 46.21
user 44.94
sys 0.13
Timesteps: 17
s UNSATISFIABLE
real 50.10
user 49.16
sys 0.13
Timesteps: 18
s UNSATISFIABLE
real 53.00
user 52.02
sys 0.14
Timesteps: 19
s UNSATISFIABLE
real 90.12
user 88.91
sys 0.19
Timesteps: 20
s UNSATISFIABLE
real 91.11
user 89.87
sys 0.17
Timesteps: 21
s UNSATISFIABLE
real 78.45
user 77.22
sys 0.19
Timesteps: 22
s UNSATISFIABLE
real 199.72
user 197.78
sys 0.30
Timesteps: 23
s UNSATISFIABLE
real 204.98
user 203.08
sys 0.28
Timesteps: 24
s UNSATISFIABLE
real 725.65
user 721.42
sys 0.62
Timesteps: 25
s UNSATISFIABLE
real 1043.93
user 1038.43
sys 0.74
Timesteps: 26
s UNSATISFIABLE
real 402.08
user 399.23
sys 0.43
Timesteps: 27
